Minimize
  - 44 y_0 - 42 y_1 - 43 y_2 - 55 y_3 - 33 y_4 - 48 y_5 - 50 y_6 - 60 y_7
   - 60 y_8 - 42 y_9 - 45 y_10 - 35 y_11 - 43 y_12 - 37 y_13 - 41 y_14
   - 60 y_15 - 21 y_16 - 20 y_17 - 45 y_18 - 50 y_19 - 37 y_20 - 52 y_21
   - 14 y_22 - 43 y_23 - 33 y_24 - 56 y_25 - 47 y_26 - 11 y_27 - 37 y_28
   - 52 y_29 - 30 y_30 - 45 y_31 - 54 y_32 - 41 y_33 - 35 y_34 - 15 y_35
   - 62 y_36 - 26 y_37 - 45 y_38 - 58 y_39 - 29 y_41 - 18 y_42 - 44 y_43
   - 42 y_44 - 49 y_45 - 50 y_46 - 43 y_47 - 50 y_48 - 12 y_49 - 18 y_50
   - 29 y_51 - 21 y_52 - 38 y_53 - 46 y_54 - 47 y_55 - 34 y_56 - 44 y_57
   - 33 y_58 - 24 y_59 - 25 y_60 - 23 y_61 - 54 y_62 - 33 y_63 - 42 y_64
   - 30 y_65 - 39 y_66 - 41 y_67 - 49 y_68 - 57 y_69 - 65 y_70 - 48 y_71
   - 28 y_72 - 44 y_73 - 31 y_74 - 49 y_75 - 53 y_76 - 21 y_77 - 33 y_78
   - 43 y_79 - 53 y_80 - 24 y_81 - 51 y_82 - 33 y_83 - 37 y_84 - 26 y_85
   - 38 y_86 - 46 y_87 - 17 y_88 - 36 y_89 - 46 y_90 - 40 y_91 - 44 y_92
   - 27 y_93 - 35 y_94 - 15 y_95 - 47 y_96 - 48 y_97 - 36 y_98 - 17 y_99
   + 3862 Constant
Subject To
 c_0: y_46 = 1
 c_1_0: y_0 >= 1
 c_1_1: y_1 >= 1
 c_1_2: y_2 + y_12 + y_23 + y_43 + y_54 >= 1
 c_1_3: y_3 + y_25 >= 1
 c_1_4: y_4 >= 1
 c_1_5: y_5 + y_54 >= 1
 c_1_6: y_6 + y_48 >= 1
 c_1_7: y_7 + y_8 + y_15 >= 1
 c_1_8: y_7 + y_8 + y_15 + y_39 >= 1
 c_1_9: y_9 + y_14 + y_64 + y_79 >= 1
 c_1_10: y_10 + y_47 >= 1
 c_1_11: y_11 + y_20 + y_89 >= 1
 c_1_12: y_2 + y_12 + y_23 + y_43 >= 1
 c_1_13: y_13 + y_89 >= 1
 c_1_14: y_9 + y_14 + y_64 + y_79 >= 1
 c_1_15: y_7 + y_8 + y_15 >= 1
 c_1_16: y_16 >= 1
 c_1_17: y_17 >= 1
 c_1_18: y_18 >= 1
 c_1_19: y_19 >= 1
 c_1_20: y_11 + y_20 + y_34 >= 1
 c_1_21: y_21 + y_76 + y_80 >= 1
 c_1_22: y_22 + y_95 >= 1
 c_1_23: y_2 + y_12 + y_23 + y_43 >= 1
 c_1_24: y_24 + y_56 + y_74 >= 1
 c_1_25: y_3 + y_25 + y_39 >= 1
 c_1_26: y_26 + y_45 + y_90 >= 1
 c_1_27: y_27 >= 1
 c_1_28: y_28 >= 1
 c_1_29: y_29 + y_32 >= 1
 c_1_30: y_30 + y_51 >= 1
 c_1_31: y_31 + y_38 + y_96 >= 1
 c_1_32: y_29 + y_32 >= 1
 c_1_33: y_33 >= 1
 c_1_34: y_20 + y_34 >= 1
 c_1_35: y_35 + y_42 >= 1
 c_1_36: y_36 >= 1
 c_1_37: y_37 + y_81 >= 1
 c_1_38: y_31 + y_38 + y_96 >= 1
 c_1_39: y_8 + y_25 + y_39 >= 1
 c_1_40: y_40 >= 1
 c_1_41: y_41 >= 1
 c_1_42: y_35 + y_42 >= 1
 c_1_43: y_2 + y_12 + y_23 + y_43 >= 1
 c_1_44: y_44 >= 1
 c_1_45: y_26 + y_45 + y_82 >= 1
 c_1_46: y_46 >= 1
 c_1_47: y_10 + y_47 >= 1
 c_1_48: y_6 + y_48 >= 1
 c_1_49: y_49 >= 1
 c_1_50: y_50 >= 1
 c_1_51: y_30 + y_51 >= 1
 c_1_52: y_52 + y_77 >= 1
 c_1_53: y_53 >= 1
 c_1_54: y_2 + y_5 + y_54 >= 1
 c_1_55: y_55 >= 1
 c_1_56: y_24 + y_56 + y_84 >= 1
 c_1_57: y_57 + y_92 >= 1
 c_1_58: y_58 >= 1
 c_1_59: y_59 >= 1
 c_1_60: y_60 + y_85 >= 1
 c_1_61: y_61 >= 1
 c_1_62: y_62 >= 1
 c_1_63: y_63 >= 1
 c_1_64: y_9 + y_14 + y_64 + y_79 >= 1
 c_1_65: y_65 >= 1
 c_1_66: y_66 >= 1
 c_1_67: y_67 >= 1
 c_1_68: y_68 >= 1
 c_1_69: y_69 >= 1
 c_1_70: y_70 >= 1
 c_1_71: y_71 >= 1
 c_1_72: y_72 >= 1
 c_1_73: y_73 >= 1
 c_1_74: y_24 + y_74 >= 1
 c_1_75: y_75 + y_96 >= 1
 c_1_76: y_21 + y_76 + y_80 >= 1
 c_1_77: y_52 + y_77 >= 1
 c_1_78: y_78 >= 1
 c_1_79: y_9 + y_14 + y_64 + y_79 >= 1
 c_1_80: y_21 + y_76 + y_80 >= 1
 c_1_81: y_37 + y_81 >= 1
 c_1_82: y_45 + y_82 >= 1
 c_1_83: y_83 >= 1
 c_1_84: y_56 + y_84 + y_86 >= 1
 c_1_85: y_60 + y_85 >= 1
 c_1_86: y_84 + y_86 >= 1
 c_1_87: y_87 >= 1
 c_1_88: y_88 + y_95 >= 1
 c_1_89: y_11 + y_13 + y_89 >= 1
 c_1_90: y_26 + y_90 >= 1
 c_1_91: y_91 >= 1
 c_1_92: y_57 + y_92 >= 1
 c_1_93: y_93 >= 1
 c_1_94: y_94 >= 1
 c_1_95: y_22 + y_88 + y_95 >= 1
 c_1_96: y_31 + y_38 + y_75 + y_96 >= 1
 c_1_97: y_97 >= 1
 c_1_98: y_98 >= 1
 c_1_99: y_99 >= 1
Bounds
 Constant = 1
Binaries
 y_0 y_1 y_2 y_3 y_4 y_5 y_6 y_7 y_8 y_9 y_10 y_11 y_12 y_13 y_14 y_15 y_16
 y_17 y_18 y_19 y_20 y_21 y_22 y_23 y_24 y_25 y_26 y_27 y_28 y_29 y_30 y_31
 y_32 y_33 y_34 y_35 y_36 y_37 y_38 y_39 y_40 y_41 y_42 y_43 y_44 y_45 y_46
 y_47 y_48 y_49 y_50 y_51 y_52 y_53 y_54 y_55 y_56 y_57 y_58 y_59 y_60 y_61
 y_62 y_63 y_64 y_65 y_66 y_67 y_68 y_69 y_70 y_71 y_72 y_73 y_74 y_75 y_76
 y_77 y_78 y_79 y_80 y_81 y_82 y_83 y_84 y_85 y_86 y_87 y_88 y_89 y_90 y_91
 y_92 y_93 y_94 y_95 y_96 y_97 y_98 y_99
End
